30
1 0 47
2 0 30
2 1 36
3 0 1
3 1 52
3 2 25
4 0 33
4 1 54
4 2 14
4 3 1
5 0 21
5 1 31
5 2 77
5 3 10
5 4 80
6 0 76
6 1 38
6 2 36
6 3 1
6 4 59
6 5 72
7 0 3
7 1 2
7 2 69
7 3 67
7 4 46
7 5 18
7 6 52
8 0 5
8 1 52
8 2 9
8 3 71
8 4 52
8 5 54
8 6 36
8 7 5
9 0 57
9 1 61
9 2 44
9 3 51
9 4 13
9 5 64
9 6 71
9 7 4
9 8 44
10 0 25
10 1 42
10 2 76
10 3 61
10 4 4
10 5 1
10 6 75
10 7 7
10 8 32
10 9 57
11 0 55
11 1 7
11 2 73
11 3 54
11 4 27
11 5 11
11 6 57
11 7 46
11 8 42
11 9 46
11 10 32
12 0 21
12 1 29
12 2 80
12 3 73
12 4 79
12 5 26
12 6 72
12 7 26
12 8 29
12 9 62
12 10 65
12 11 41
13 0 46
13 1 52
13 2 61
13 3 28
13 4 37
13 5 39
13 6 36
13 7 52
13 8 30
13 9 67
13 10 51
13 11 15
13 12 9
14 0 65
14 1 52
14 2 31
14 3 16
14 4 8
14 5 71
14 6 45
14 7 19
14 8 5
14 9 63
14 10 70
14 11 28
14 12 24
14 13 60
15 0 24
15 1 63
15 2 7
15 3 59
15 4 11
15 5 5
15 6 55
15 7 60
15 8 17
15 9 45
15 10 80
15 11 31
15 12 46
15 13 15
15 14 32
16 0 80
16 1 13
16 2 40
16 3 63
16 4 30
16 5 13
16 6 54
16 7 67
16 8 69
16 9 61
16 10 75
16 11 25
16 12 30
16 13 37
16 14 30
16 15 61
17 0 48
17 1 31
17 2 37
17 3 4
17 4 46
17 5 8
17 6 39
17 7 35
17 8 21
17 9 68
17 10 62
17 11 19
17 12 64
17 13 25
17 14 34
17 15 25
17 16 52
18 0 21
18 1 80
18 2 63
18 3 61
18 4 61
18 5 24
18 6 71
18 7 41
18 8 50
18 9 10
18 10 50
18 11 77
18 12 40
18 13 66
18 14 1
18 15 61
18 16 51
18 17 69
19 0 56
19 1 59
19 2 21
19 3 68
19 4 34
19 5 80
19 6 13
19 7 49
19 8 45
19 9 78
19 10 62
19 11 25
19 12 62
19 13 78
19 14 80
19 15 67
19 16 42
19 17 73
19 18 40
20 0 61
20 1 60
20 2 35
20 3 18
20 4 48
20 5 25
20 6 51
20 7 26
20 8 30
20 9 60
20 10 71
20 11 69
20 12 39
20 13 41
20 14 58
20 15 62
20 16 45
20 17 61
20 18 54
20 19 16
21 0 52
21 1 28
21 2 39
21 3 5
21 4 78
21 5 53
21 6 8
21 7 27
21 8 22
21 9 22
21 10 33
21 11 58
21 12 12
21 13 58
21 14 58
21 15 33
21 16 13
21 17 70
21 18 16
21 19 12
21 20 45
22 0 48
22 1 67
22 2 3
22 3 64
22 4 57
22 5 77
22 6 42
22 7 27
22 8 42
22 9 1
22 10 41
22 11 29
22 12 28
22 13 9
22 14 66
22 15 25
22 16 73
22 17 69
22 18 11
22 19 34
22 20 27
22 21 24
23 0 18
23 1 63
23 2 22
23 3 74
23 4 24
23 5 37
23 6 35
23 7 9
23 8 35
23 9 52
23 10 36
23 11 50
23 12 60
23 13 6
23 14 60
23 15 64
23 16 43
23 17 9
23 18 12
23 19 46
23 20 49
23 21 7
23 22 10
24 0 58
24 1 59
24 2 75
24 3 77
24 4 55
24 5 43
24 6 21
24 7 34
24 8 76
24 9 51
24 10 17
24 11 36
24 12 69
24 13 51
24 14 77
24 15 9
24 16 33
24 17 31
24 18 44
24 19 68
24 20 27
24 21 45
24 22 32
24 23 56
25 0 28
25 1 31
25 2 76
25 3 72
25 4 56
25 5 27
25 6 69
25 7 36
25 8 18
25 9 66
25 10 4
25 11 9
25 12 42
25 13 31
25 14 34
25 15 3
25 16 76
25 17 63
25 18 79
25 19 22
25 20 49
25 21 18
25 22 63
25 23 34
25 24 48
26 0 21
26 1 58
26 2 39
26 3 79
26 4 34
26 5 41
26 6 48
26 7 35
26 8 48
26 9 75
26 10 16
26 11 34
26 12 23
26 13 31
26 14 57
26 15 35
26 16 77
26 17 28
26 18 77
26 19 56
26 20 48
26 21 17
26 22 74
26 23 4
26 24 19
26 25 56
27 0 16
27 1 30
27 2 23
27 3 54
27 4 58
27 5 42
27 6 66
27 7 9
27 8 39
27 9 36
27 10 9
27 11 57
27 12 78
27 13 37
27 14 1
27 15 9
27 16 5
27 17 28
27 18 16
27 19 73
27 20 26
27 21 80
27 22 14
27 23 77
27 24 67
27 25 68
27 26 51
28 0 34
28 1 34
28 2 5
28 3 42
28 4 65
28 5 34
28 6 33
28 7 75
28 8 69
28 9 48
28 10 26
28 11 62
28 12 1
28 13 73
28 14 31
28 15 48
28 16 62
28 17 12
28 18 28
28 19 23
28 20 27
28 21 44
28 22 48
28 23 31
28 24 12
28 25 10
28 26 23
28 27 12
29 0 28
29 1 11
29 2 70
29 3 68
29 4 24
29 5 76
29 6 59
29 7 57
29 8 45
29 9 34
29 10 73
29 11 44
29 12 80
29 13 20
29 14 28
29 15 8
29 16 79
29 17 12
29 18 8
29 19 37
29 20 72
29 21 53
29 22 35
29 23 17
29 24 20
29 25 7
29 26 53
29 27 9
29 28 12
